% instance size is  20
nitems= 20 ;
capacity= 2943 ;
gain= [462, 88, 693, 66, 55, 154, 55, 110, 231, 33, 770, 66, 66, 88, 308, 770, 44, 110, 77, 44] ;
weight= [576, 168, 864, 126, 105, 192, 105, 210, 288, 63, 960, 126, 126, 168, 384, 960, 84, 210, 147, 84] ;
